modelTest/output.lp
\ Model Wide-Reach_Classification
\ LP format - for model browsing.
Maximize
x[188] + x[281] + x[311] + x[330] + x[437] + x[442] + x[610] + x[672] + x[827] + x[832] + x[835] + x[879] + x[1136] + x[1137] + x[1344] + x[1345] + x[1412] + x[1464] + x[1493] + x[1494] + x[1504] + x[1605] + x[1632] + x[2298] + x[2333] + x[2522] + x[2748] + x[2750] + x[2945] + x[2965] + x[3030] + x[3062] + x[3070] + x[3276] + x[3421] + x[3482] + x[3659] + x[3660] + x[3664] + x[3665] + x[3667] + x[3754] + x[3764] + x[4065] + x[4167] + x[4765] + x[4766] + x[4786] + x[4787] + x[4802]
