output.sol
# Solution for model Wide-Reach_Classification
# Objective value = 18
w[0] 0
w[1] 4.6823354193068850e-02
w[2] 3.9721463752401143e-01
w[3] 0
w[4] 0
w[5] 0
w[6] 0
w[7] 0
w[8] 1.0190350521934095e-03
w[9] 4.6849483296970834e-01
w[10] 1.3771344211750419e-01
c 2.0272020955541583e+00
x[0] 0
x[1] 0
x[2] 0
x[3] 0
x[4] 0
x[5] 0
x[6] 0
x[7] 0
x[8] 0
x[9] 0
x[10] 0
x[11] 0
x[12] 0
x[13] 0
x[14] 0
x[15] 0
x[16] 0
x[17] 0
x[18] 0
x[19] 0
x[20] 0
x[21] 0
x[22] 0
x[23] 0
x[24] 0
x[25] 0
x[26] 0
x[27] 0
x[28] 0
x[29] 0
x[30] 0
x[31] 0
x[32] 0
x[33] 0
x[34] 0
x[35] 0
x[36] 0
x[37] 0
x[38] 0
x[39] 0
x[40] 0
x[41] 0
x[42] 0
x[43] 0
x[44] 0
x[45] 0
x[46] 0
x[47] 0
x[48] 0
x[49] 0
x[50] 0
x[51] 0
x[52] 0
x[53] 0
x[54] 0
x[55] 0
x[56] 0
x[57] 0
x[58] 0
x[59] 0
x[60] 0
x[61] 0
x[62] 0
x[63] 0
x[64] 0
x[65] 0
x[66] 0
x[67] 0
x[68] 0
x[69] 0
x[70] 0
x[71] 0
x[72] 0
x[73] 0
x[74] 0
x[75] 0
x[76] 0
x[77] 0
x[78] 0
x[79] 0
x[80] 0
x[81] 0
x[82] 0
x[83] 0
x[84] 0
x[85] 0
x[86] 0
x[87] 0
x[88] 0
x[89] 0
x[90] 0
x[91] 0
x[92] 0
x[93] 0
x[94] 0
x[95] 0
x[96] 0
x[97] 0
x[98] 0
x[99] 0
x[100] 0
x[101] 0
x[102] 0
x[103] 0
x[104] 0
x[105] 0
x[106] 0
x[107] 0
x[108] 0
x[109] 0
x[110] 0
x[111] 0
x[112] 0
x[113] 0
x[114] 0
x[115] 0
x[116] 0
x[117] 0
x[118] 0
x[119] 0
x[120] 0
x[121] 0
x[122] 0
x[123] 0
x[124] 0
x[125] 0
x[126] 0
x[127] 0
x[128] 0
x[129] 0
x[130] 0
x[131] 0
x[132] 0
x[133] 0
x[134] 0
x[135] 0
x[136] 0
x[137] 0
x[138] 0
x[139] 0
x[140] 0
x[141] 0
x[142] 0
x[143] 0
x[144] 0
x[145] 0
x[146] 0
x[147] 0
x[148] 0
x[149] 0
x[150] 0
x[151] 0
x[152] 0
x[153] 0
x[154] 0
x[155] 0
x[156] 0
x[157] 0
x[158] 0
x[159] 0
x[160] 0
x[161] 0
x[162] 0
x[163] 0
x[164] 0
x[165] 0
x[166] 0
x[167] 0
x[168] 0
x[169] 0
x[170] 0
x[171] 0
x[172] 0
x[173] 0
x[174] 0
x[175] 0
x[176] 0
x[177] 0
x[178] 0
x[179] 0
x[180] 0
x[181] 0
x[182] 0
x[183] 0
x[184] 0
x[185] 0
x[186] 0
x[187] 0
x[188] 0
x[189] 0
x[190] 0
x[191] 0
x[192] 0
x[193] 0
x[194] 0
x[195] 0
x[196] 0
x[197] 0
x[198] 0
x[199] 0
x[200] 0
x[201] 0
x[202] 0
x[203] 0
x[204] 0
x[205] 0
x[206] 0
x[207] 0
x[208] 0
x[209] 0
x[210] 0
x[211] 0
x[212] 0
x[213] 0
x[214] 0
x[215] 0
x[216] 0
x[217] 0
x[218] 0
x[219] 0
x[220] 0
x[221] 0
x[222] 0
x[223] 0
x[224] 0
x[225] 0
x[226] 0
x[227] 0
x[228] 0
x[229] 0
x[230] 0
x[231] 0
x[232] 0
x[233] 0
x[234] 0
x[235] 0
x[236] 0
x[237] 0
x[238] 0
x[239] 0
x[240] 0
x[241] 0
x[242] 0
x[243] 0
x[244] 0
x[245] 0
x[246] 0
x[247] 0
x[248] 0
x[249] 0
x[250] 0
x[251] 0
x[252] 0
x[253] 0
x[254] 0
x[255] 0
x[256] 0
x[257] 0
x[258] 0
x[259] 0
x[260] 0
x[261] 0
x[262] 0
x[263] 0
x[264] 0
x[265] 0
x[266] 0
x[267] 1
x[268] 0
x[269] 0
x[270] 0
x[271] 0
x[272] 0
x[273] 0
x[274] 0
x[275] 0
x[276] 0
x[277] 0
x[278] 1
x[279] 0
x[280] 0
x[281] 0
x[282] 0
x[283] 0
x[284] 0
x[285] 0
x[286] 0
x[287] 0
x[288] 0
x[289] 0
x[290] 0
x[291] 0
x[292] 0
x[293] 0
x[294] 0
x[295] 0
x[296] 0
x[297] 0
x[298] 0
x[299] 0
x[300] 0
x[301] 0
x[302] 0
x[303] 0
x[304] 0
x[305] 0
x[306] 0
x[307] 0
x[308] 0
x[309] 0
x[310] 0
x[311] 0
x[312] 0
x[313] 0
x[314] 0
x[315] 0
x[316] 0
x[317] 0
x[318] 0
x[319] 0
x[320] 0
x[321] 0
x[322] 0
x[323] 0
x[324] 0
x[325] 0
x[326] 0
x[327] 0
x[328] 0
x[329] 0
x[330] 0
x[331] 0
x[332] 0
x[333] 0
x[334] 0
x[335] 0
x[336] 0
x[337] 0
x[338] 0
x[339] 0
x[340] 0
x[341] 0
x[342] 0
x[343] 0
x[344] 0
x[345] 0
x[346] 0
x[347] 0
x[348] 0
x[349] 0
x[350] 0
x[351] 0
x[352] 0
x[353] 0
x[354] 0
x[355] 0
x[356] 0
x[357] 0
x[358] 0
x[359] 0
x[360] 0
x[361] 0
x[362] 0
x[363] 0
x[364] 0
x[365] 0
x[366] 0
x[367] 0
x[368] 0
x[369] 0
x[370] 0
x[371] 0
x[372] 0
x[373] 0
x[374] 0
x[375] 0
x[376] 0
x[377] 0
x[378] 0
x[379] 0
x[380] 0
x[381] 0
x[382] 0
x[383] 0
x[384] 0
x[385] 0
x[386] 0
x[387] 0
x[388] 0
x[389] 0
x[390] 1
x[391] 0
x[392] 0
x[393] 0
x[394] 0
x[395] 0
x[396] 0
x[397] 0
x[398] 0
x[399] 0
x[400] 0
x[401] 0
x[402] 0
x[403] 0
x[404] 0
x[405] 0
x[406] 0
x[407] 0
x[408] 0
x[409] 0
x[410] 0
x[411] 0
x[412] 0
x[413] 0
x[414] 0
x[415] 0
x[416] 0
x[417] 0
x[418] 0
x[419] 0
x[420] 0
x[421] 0
x[422] 0
x[423] 0
x[424] 0
x[425] 0
x[426] 0
x[427] 0
x[428] 0
x[429] 0
x[430] 0
x[431] 0
x[432] 0
x[433] 0
x[434] 0
x[435] 0
x[436] 0
x[437] 0
x[438] 0
x[439] 0
x[440] 1
x[441] 0
x[442] 0
x[443] 0
x[444] 0
x[445] 0
x[446] 0
x[447] 0
x[448] 0
x[449] 0
x[450] 0
x[451] 0
x[452] 0
x[453] 0
x[454] 0
x[455] 1
x[456] 0
x[457] 0
x[458] 0
x[459] 0
x[460] 0
x[461] 0
x[462] 0
x[463] 0
x[464] 0
x[465] 0
x[466] 0
x[467] 0
x[468] 0
x[469] 0
x[470] 0
x[471] 0
x[472] 0
x[473] 0
x[474] 0
x[475] 0
x[476] 0
x[477] 0
x[478] 0
x[479] 0
x[480] 0
x[481] 1
x[482] 0
x[483] 0
x[484] 0
x[485] 0
x[486] 0
x[487] 0
x[488] 0
x[489] 0
x[490] 0
x[491] 0
x[492] 0
x[493] 0
x[494] 0
x[495] 1
x[496] 0
x[497] 0
x[498] 1
x[499] 0
x[500] 0
x[501] 0
x[502] 0
x[503] 0
x[504] 0
x[505] 0
x[506] 0
x[507] 0
x[508] 0
x[509] 0
x[510] 0
x[511] 0
x[512] 0
x[513] 0
x[514] 0
x[515] 0
x[516] 0
x[517] 0
x[518] 0
x[519] 0
x[520] 0
x[521] 0
x[522] 0
x[523] 0
x[524] 0
x[525] 0
x[526] 0
x[527] 0
x[528] 0
x[529] 0
x[530] 0
x[531] 0
x[532] 0
x[533] 0
x[534] 0
x[535] 0
x[536] 0
x[537] 0
x[538] 0
x[539] 0
x[540] 0
x[541] 0
x[542] 0
x[543] 0
x[544] 0
x[545] 0
x[546] 0
x[547] 0
x[548] 0
x[549] 0
x[550] 0
x[551] 0
x[552] 0
x[553] 0
x[554] 0
x[555] 0
x[556] 0
x[557] 0
x[558] 0
x[559] 0
x[560] 0
x[561] 0
x[562] 0
x[563] 0
x[564] 0
x[565] 0
x[566] 0
x[567] 0
x[568] 0
x[569] 0
x[570] 0
x[571] 0
x[572] 0
x[573] 0
x[574] 0
x[575] 0
x[576] 0
x[577] 0
x[578] 0
x[579] 0
x[580] 0
x[581] 0
x[582] 0
x[583] 0
x[584] 0
x[585] 0
x[586] 0
x[587] 0
x[588] 1
x[589] 0
x[590] 0
x[591] 0
x[592] 0
x[593] 0
x[594] 0
x[595] 0
x[596] 0
x[597] 0
x[598] 0
x[599] 0
x[600] 0
x[601] 0
x[602] 0
x[603] 0
x[604] 0
x[605] 0
x[606] 0
x[607] 0
x[608] 0
x[609] 0
x[610] 0
x[611] 0
x[612] 0
x[613] 0
x[614] 0
x[615] 0
x[616] 0
x[617] 0
x[618] 0
x[619] 0
x[620] 0
x[621] 0
x[622] 0
x[623] 0
x[624] 0
x[625] 0
x[626] 0
x[627] 0
x[628] 0
x[629] 0
x[630] 0
x[631] 0
x[632] 0
x[633] 0
x[634] 0
x[635] 0
x[636] 0
x[637] 0
x[638] 0
x[639] 0
x[640] 0
x[641] 0
x[642] 0
x[643] 0
x[644] 0
x[645] 0
x[646] 0
x[647] 0
x[648] 0
x[649] 0
x[650] 0
x[651] 0
x[652] 0
x[653] 0
x[654] 0
x[655] 0
x[656] 0
x[657] 0
x[658] 0
x[659] 0
x[660] 0
x[661] 0
x[662] 0
x[663] 0
x[664] 0
x[665] 0
x[666] 0
x[667] 0
x[668] 0
x[669] 0
x[670] 0
x[671] 0
x[672] 0
x[673] 0
x[674] 0
x[675] 0
x[676] 0
x[677] 0
x[678] 0
x[679] 0
x[680] 0
x[681] 0
x[682] 0
x[683] 0
x[684] 0
x[685] 0
x[686] 0
x[687] 0
x[688] 0
x[689] 0
x[690] 0
x[691] 0
x[692] 0
x[693] 0
x[694] 0
x[695] 0
x[696] 0
x[697] 0
x[698] 0
x[699] 0
x[700] 0
x[701] 0
x[702] 0
x[703] 0
x[704] 0
x[705] 0
x[706] 0
x[707] 0
x[708] 0
x[709] 0
x[710] 0
x[711] 0
x[712] 0
x[713] 0
x[714] 0
x[715] 0
x[716] 0
x[717] 0
x[718] 0
x[719] 0
x[720] 0
x[721] 0
x[722] 0
x[723] 0
x[724] 0
x[725] 0
x[726] 0
x[727] 0
x[728] 0
x[729] 0
x[730] 0
x[731] 0
x[732] 0
x[733] 0
x[734] 0
x[735] 0
x[736] 0
x[737] 0
x[738] 0
x[739] 0
x[740] 0
x[741] 0
x[742] 0
x[743] 0
x[744] 0
x[745] 0
x[746] 0
x[747] 0
x[748] 0
x[749] 0
x[750] 0
x[751] 0
x[752] 0
x[753] 0
x[754] 0
x[755] 0
x[756] 0
x[757] 0
x[758] 0
x[759] 0
x[760] 0
x[761] 0
x[762] 0
x[763] 0
x[764] 0
x[765] 0
x[766] 0
x[767] 0
x[768] 0
x[769] 0
x[770] 0
x[771] 0
x[772] 0
x[773] 0
x[774] 0
x[775] 0
x[776] 0
x[777] 0
x[778] 0
x[779] 0
x[780] 0
x[781] 0
x[782] 0
x[783] 0
x[784] 0
x[785] 0
x[786] 0
x[787] 0
x[788] 0
x[789] 0
x[790] 0
x[791] 0
x[792] 0
x[793] 0
x[794] 0
x[795] 0
x[796] 0
x[797] 0
x[798] 0
x[799] 0
x[800] 0
x[801] 0
x[802] 0
x[803] 0
x[804] 0
x[805] 0
x[806] 0
x[807] 0
x[808] 0
x[809] 0
x[810] 0
x[811] 0
x[812] 0
x[813] 0
x[814] 0
x[815] 0
x[816] 0
x[817] 0
x[818] 0
x[819] 0
x[820] 0
x[821] 0
x[822] 0
x[823] 0
x[824] 0
x[825] 0
x[826] 0
x[827] 0
x[828] 1
x[829] 0
x[830] 0
x[831] 0
x[832] 0
x[833] 0
x[834] 0
x[835] 0
x[836] 0
x[837] 0
x[838] 0
x[839] 0
x[840] 0
x[841] 0
x[842] 0
x[843] 0
x[844] 0
x[845] 0
x[846] 0
x[847] 0
x[848] 0
x[849] 0
x[850] 0
x[851] 0
x[852] 0
x[853] 0
x[854] 0
x[855] 0
x[856] 0
x[857] 0
x[858] 0
x[859] 0
x[860] 0
x[861] 0
x[862] 0
x[863] 0
x[864] 0
x[865] 0
x[866] 0
x[867] 0
x[868] 0
x[869] 0
x[870] 0
x[871] 0
x[872] 0
x[873] 0
x[874] 0
x[875] 0
x[876] 0
x[877] 0
x[878] 0
x[879] 0
x[880] 0
x[881] 0
x[882] 0
x[883] 0
x[884] 0
x[885] 0
x[886] 0
x[887] 0
x[888] 0
x[889] 0
x[890] 0
x[891] 0
x[892] 0
x[893] 0
x[894] 0
x[895] 0
x[896] 0
x[897] 0
x[898] 0
x[899] 0
x[900] 0
x[901] 0
x[902] 0
x[903] 0
x[904] 0
x[905] 0
x[906] 0
x[907] 0
x[908] 0
x[909] 0
x[910] 0
x[911] 0
x[912] 0
x[913] 0
x[914] 0
x[915] 0
x[916] 0
x[917] 0
x[918] 0
x[919] 0
x[920] 0
x[921] 0
x[922] 0
x[923] 0
x[924] 0
x[925] 0
x[926] 0
x[927] 0
x[928] 0
x[929] 0
x[930] 0
x[931] 0
x[932] 0
x[933] 0
x[934] 0
x[935] 0
x[936] 0
x[937] 0
x[938] 0
x[939] 0
x[940] 0
x[941] 0
x[942] 0
x[943] 0
x[944] 0
x[945] 0
x[946] 0
x[947] 0
x[948] 0
x[949] 0
x[950] 0
x[951] 0
x[952] 0
x[953] 0
x[954] 0
x[955] 0
x[956] 0
x[957] 0
x[958] 0
x[959] 0
x[960] 0
x[961] 0
x[962] 0
x[963] 0
x[964] 0
x[965] 0
x[966] 0
x[967] 0
x[968] 0
x[969] 0
x[970] 0
x[971] 0
x[972] 0
x[973] 0
x[974] 0
x[975] 0
x[976] 0
x[977] 0
x[978] 0
x[979] 0
x[980] 0
x[981] 0
x[982] 0
x[983] 0
x[984] 0
x[985] 0
x[986] 0
x[987] 0
x[988] 0
x[989] 0
x[990] 0
x[991] 0
x[992] 0
x[993] 0
x[994] 0
x[995] 0
x[996] 0
x[997] 0
x[998] 0
x[999] 0
x[1000] 0
x[1001] 0
x[1002] 0
x[1003] 0
x[1004] 0
x[1005] 0
x[1006] 0
x[1007] 0
x[1008] 0
x[1009] 0
x[1010] 0
x[1011] 0
x[1012] 0
x[1013] 0
x[1014] 0
x[1015] 0
x[1016] 0
x[1017] 0
x[1018] 0
x[1019] 0
x[1020] 0
x[1021] 0
x[1022] 0
x[1023] 0
x[1024] 0
x[1025] 0
x[1026] 0
x[1027] 0
x[1028] 0
x[1029] 0
x[1030] 0
x[1031] 0
x[1032] 0
x[1033] 0
x[1034] 0
x[1035] 0
x[1036] 0
x[1037] 0
x[1038] 0
x[1039] 0
x[1040] 0
x[1041] 0
x[1042] 0
x[1043] 0
x[1044] 0
x[1045] 0
x[1046] 0
x[1047] 0
x[1048] 0
x[1049] 0
x[1050] 0
x[1051] 0
x[1052] 0
x[1053] 0
x[1054] 0
x[1055] 0
x[1056] 0
x[1057] 0
x[1058] 0
x[1059] 0
x[1060] 0
x[1061] 1
x[1062] 0
x[1063] 0
x[1064] 0
x[1065] 0
x[1066] 0
x[1067] 0
x[1068] 0
x[1069] 0
x[1070] 0
x[1071] 0
x[1072] 0
x[1073] 0
x[1074] 0
x[1075] 0
x[1076] 0
x[1077] 0
x[1078] 0
x[1079] 0
x[1080] 0
x[1081] 0
x[1082] 0
x[1083] 0
x[1084] 0
x[1085] 0
x[1086] 0
x[1087] 0
x[1088] 0
x[1089] 0
x[1090] 1
x[1091] 0
x[1092] 0
x[1093] 0
x[1094] 0
x[1095] 0
x[1096] 0
x[1097] 0
x[1098] 0
x[1099] 0
x[1100] 0
x[1101] 0
x[1102] 0
x[1103] 0
x[1104] 0
x[1105] 0
x[1106] 0
x[1107] 0
x[1108] 0
x[1109] 0
x[1110] 0
x[1111] 0
x[1112] 0
x[1113] 0
x[1114] 0
x[1115] 0
x[1116] 0
x[1117] 0
x[1118] 0
x[1119] 0
x[1120] 1
x[1121] 0
x[1122] 0
x[1123] 0
x[1124] 0
x[1125] 0
x[1126] 0
x[1127] 0
x[1128] 0
x[1129] 0
x[1130] 0
x[1131] 0
x[1132] 0
x[1133] 0
x[1134] 0
x[1135] 0
x[1136] 0
x[1137] 0
x[1138] 0
x[1139] 0
x[1140] 0
x[1141] 0
x[1142] 0
x[1143] 0
x[1144] 0
x[1145] 0
x[1146] 0
x[1147] 0
x[1148] 0
x[1149] 0
x[1150] 0
x[1151] 0
x[1152] 0
x[1153] 0
x[1154] 0
x[1155] 0
x[1156] 0
x[1157] 0
x[1158] 0
x[1159] 0
x[1160] 0
x[1161] 0
x[1162] 0
x[1163] 0
x[1164] 0
x[1165] 0
x[1166] 0
x[1167] 0
x[1168] 0
x[1169] 0
x[1170] 0
x[1171] 0
x[1172] 0
x[1173] 0
x[1174] 0
x[1175] 0
x[1176] 0
x[1177] 0
x[1178] 0
x[1179] 0
x[1180] 0
x[1181] 0
x[1182] 0
x[1183] 0
x[1184] 0
x[1185] 0
x[1186] 0
x[1187] 0
x[1188] 0
x[1189] 0
x[1190] 0
x[1191] 0
x[1192] 0
x[1193] 0
x[1194] 0
x[1195] 0
x[1196] 0
x[1197] 0
x[1198] 0
x[1199] 0
x[1200] 0
x[1201] 0
x[1202] 1
x[1203] 0
x[1204] 0
x[1205] 0
x[1206] 0
x[1207] 0
x[1208] 0
x[1209] 0
x[1210] 0
x[1211] 0
x[1212] 0
x[1213] 0
x[1214] 0
x[1215] 0
x[1216] 0
x[1217] 0
x[1218] 0
x[1219] 0
x[1220] 0
x[1221] 0
x[1222] 0
x[1223] 0
x[1224] 0
x[1225] 0
x[1226] 0
x[1227] 0
x[1228] 0
x[1229] 0
x[1230] 0
x[1231] 0
x[1232] 0
x[1233] 0
x[1234] 0
x[1235] 0
x[1236] 0
x[1237] 0
x[1238] 0
x[1239] 0
x[1240] 0
x[1241] 0
x[1242] 0
x[1243] 0
x[1244] 0
x[1245] 0
x[1246] 0
x[1247] 0
x[1248] 0
x[1249] 0
x[1250] 0
x[1251] 0
x[1252] 0
x[1253] 0
x[1254] 0
x[1255] 0
x[1256] 0
x[1257] 0
x[1258] 0
x[1259] 0
x[1260] 0
x[1261] 0
x[1262] 0
x[1263] 0
x[1264] 0
x[1265] 0
x[1266] 0
x[1267] 0
x[1268] 0
x[1269] 1
x[1270] 0
x[1271] 0
x[1272] 0
x[1273] 0
x[1274] 0
x[1275] 0
x[1276] 0
x[1277] 0
x[1278] 0
x[1279] 0
x[1280] 0
x[1281] 0
x[1282] 0
x[1283] 0
x[1284] 0
x[1285] 0
x[1286] 0
x[1287] 0
x[1288] 0
x[1289] 0
x[1290] 0
x[1291] 0
x[1292] 0
x[1293] 0
x[1294] 0
x[1295] 0
x[1296] 0
x[1297] 0
x[1298] 0
x[1299] 0
x[1300] 0
x[1301] 0
x[1302] 0
x[1303] 0
x[1304] 0
x[1305] 0
x[1306] 0
x[1307] 0
x[1308] 0
x[1309] 0
x[1310] 0
x[1311] 0
x[1312] 0
x[1313] 0
x[1314] 0
x[1315] 0
x[1316] 0
x[1317] 0
x[1318] 0
x[1319] 0
x[1320] 0
x[1321] 0
x[1322] 0
x[1323] 0
x[1324] 0
x[1325] 0
x[1326] 0
x[1327] 0
x[1328] 0
x[1329] 0
x[1330] 0
x[1331] 0
x[1332] 0
x[1333] 0
x[1334] 0
x[1335] 0
x[1336] 0
x[1337] 0
x[1338] 0
x[1339] 0
x[1340] 0
x[1341] 0
x[1342] 0
x[1343] 0
x[1344] 0
x[1345] 0
x[1346] 0
x[1347] 0
x[1348] 0
x[1349] 0
x[1350] 0
x[1351] 0
x[1352] 0
x[1353] 0
x[1354] 0
x[1355] 0
x[1356] 0
x[1357] 0
x[1358] 0
x[1359] 0
x[1360] 0
x[1361] 0
x[1362] 0
x[1363] 0
x[1364] 0
x[1365] 0
x[1366] 0
x[1367] 0
x[1368] 0
x[1369] 0
x[1370] 0
x[1371] 0
x[1372] 0
x[1373] 0
x[1374] 0
x[1375] 0
x[1376] 0
x[1377] 0
x[1378] 0
x[1379] 0
x[1380] 0
x[1381] 0
x[1382] 0
x[1383] 0
x[1384] 0
x[1385] 0
x[1386] 0
x[1387] 0
x[1388] 0
x[1389] 0
x[1390] 0
x[1391] 0
x[1392] 0
x[1393] 0
x[1394] 0
x[1395] 0
x[1396] 0
x[1397] 0
x[1398] 0
x[1399] 0
x[1400] 0
x[1401] 0
x[1402] 0
x[1403] 1
x[1404] 0
x[1405] 0
x[1406] 0
x[1407] 0
x[1408] 0
x[1409] 0
x[1410] 0
x[1411] 0
x[1412] 0
x[1413] 0
x[1414] 0
x[1415] 0
x[1416] 0
x[1417] 0
x[1418] 0
x[1419] 0
x[1420] 0
x[1421] 0
x[1422] 0
x[1423] 0
x[1424] 0
x[1425] 0
x[1426] 0
x[1427] 0
x[1428] 0
x[1429] 0
x[1430] 0
x[1431] 0
x[1432] 0
x[1433] 0
x[1434] 0
x[1435] 0
x[1436] 0
x[1437] 0
x[1438] 0
x[1439] 0
x[1440] 0
x[1441] 0
x[1442] 0
x[1443] 0
x[1444] 0
x[1445] 0
x[1446] 0
x[1447] 0
x[1448] 0
x[1449] 1
x[1450] 0
x[1451] 0
x[1452] 0
x[1453] 0
x[1454] 0
x[1455] 0
x[1456] 0
x[1457] 0
x[1458] 0
x[1459] 0
x[1460] 0
x[1461] 0
x[1462] 0
x[1463] 0
x[1464] 0
x[1465] 0
x[1466] 0
x[1467] 0
x[1468] 0
x[1469] 0
x[1470] 0
x[1471] 0
x[1472] 0
x[1473] 0
x[1474] 0
x[1475] 0
x[1476] 0
x[1477] 0
x[1478] 0
x[1479] 0
x[1480] 0
x[1481] 0
x[1482] 0
x[1483] 0
x[1484] 0
x[1485] 0
x[1486] 0
x[1487] 0
x[1488] 0
x[1489] 0
x[1490] 0
x[1491] 0
x[1492] 0
x[1493] 0
x[1494] 0
x[1495] 0
x[1496] 0
x[1497] 0
x[1498] 0
x[1499] 0
x[1500] 0
x[1501] 0
x[1502] 0
x[1503] 0
x[1504] 0
x[1505] 0
x[1506] 0
x[1507] 0
x[1508] 0
x[1509] 0
x[1510] 0
x[1511] 0
x[1512] 0
x[1513] 0
x[1514] 0
x[1515] 0
x[1516] 0
x[1517] 0
x[1518] 0
x[1519] 0
x[1520] 0
x[1521] 0
x[1522] 0
x[1523] 0
x[1524] 0
x[1525] 0
x[1526] 0
x[1527] 0
x[1528] 0
x[1529] 0
x[1530] 0
x[1531] 0
x[1532] 0
x[1533] 0
x[1534] 0
x[1535] 0
x[1536] 0
x[1537] 0
x[1538] 0
x[1539] 0
x[1540] 0
x[1541] 0
x[1542] 0
x[1543] 0
x[1544] 0
x[1545] 0
x[1546] 0
x[1547] 0
x[1548] 0
x[1549] 1
x[1550] 0
x[1551] 0
x[1552] 0
x[1553] 0
x[1554] 0
x[1555] 0
x[1556] 0
x[1557] 0
x[1558] 0
x[1559] 0
x[1560] 0
x[1561] 0
x[1562] 0
x[1563] 0
x[1564] 0
x[1565] 0
x[1566] 0
x[1567] 0
x[1568] 0
x[1569] 0
x[1570] 0
x[1571] 0
x[1572] 0
x[1573] 0
x[1574] 0
x[1575] 0
x[1576] 0
x[1577] 0
x[1578] 0
x[1579] 0
x[1580] 0
x[1581] 0
x[1582] 0
x[1583] 0
x[1584] 0
x[1585] 0
x[1586] 0
x[1587] 0
x[1588] 0
x[1589] 0
x[1590] 0
x[1591] 0
x[1592] 0
x[1593] 0
x[1594] 0
x[1595] 0
x[1596] 0
x[1597] 0
x[1598] 0
y[0] 0
y[1] 0
y[2] 0
y[3] 0
y[4] 0
y[5] 0
y[6] 0
y[7] 0
y[8] 0
y[9] 0
y[10] 0
y[11] 0
y[12] 0
y[13] 1
y[14] 0
y[15] 0
y[16] 1
y[17] 1
y[18] 0
y[19] 0
y[20] 0
y[21] 0
y[22] 0
y[23] 0
y[24] 0
y[25] 0
y[26] 0
y[27] 0
y[28] 0
y[29] 0
y[30] 0
y[31] 0
y[32] 0
y[33] 0
y[34] 0
y[35] 0
y[36] 0
y[37] 0
y[38] 0
y[39] 0
y[40] 0
y[41] 0
y[42] 0
y[43] 1
y[44] 0
y[45] 1
y[46] 0
y[47] 0
y[48] 0
y[49] 0
y[50] 0
y[51] 0
y[52] 0
y[53] 0
y[54] 0
y[55] 0
y[56] 0
y[57] 0
y[58] 0
y[59] 0
y[60] 0
y[61] 0
y[62] 0
y[63] 0
y[64] 0
y[65] 0
y[66] 0
y[67] 0
y[68] 1
y[69] 0
y[70] 0
y[71] 0
y[72] 0
y[73] 0
y[74] 0
y[75] 1
y[76] 1
y[77] 0
y[78] 0
y[79] 0
y[80] 0
y[81] 1
y[82] 0
y[83] 0
y[84] 0
y[85] 0
y[86] 1
y[87] 0
y[88] 1
y[89] 0
y[90] 0
y[91] 1
y[92] 1
y[93] 0
y[94] 0
y[95] 1
y[96] 0
y[97] 0
y[98] 0
y[99] 0
y[100] 0
y[101] 0
y[102] 0
y[103] 0
y[104] 0
y[105] 0
y[106] 1
y[107] 0
y[108] 0
y[109] 0
y[110] 0
y[111] 0
y[112] 0
y[113] 0
y[114] 0
y[115] 0
y[116] 0
y[117] 0
y[118] 0
y[119] 0
y[120] 0
y[121] 0
y[122] 0
y[123] 0
y[124] 0
y[125] 0
y[126] 0
y[127] 0
y[128] 0
y[129] 0
y[130] 0
y[131] 1
y[132] 1
y[133] 0
y[134] 0
y[135] 0
y[136] 0
y[137] 0
y[138] 0
y[139] 0
y[140] 0
y[141] 0
y[142] 1
y[143] 0
y[144] 1
y[145] 0
y[146] 0
y[147] 0
y[148] 0
y[149] 0
y[150] 0
y[151] 1
y[152] 0
y[153] 0
y[154] 0
y[155] 0
y[156] 0
y[157] 0
y[158] 0
y[159] 0
y[160] 0
y[161] 0
y[162] 0
y[163] 0
y[164] 0
y[165] 0
y[166] 0
y[167] 0
y[168] 0
y[169] 1
y[170] 0
y[171] 0
y[172] 0
y[173] 0
y[174] 0
y[175] 0
y[176] 0
y[177] 0
y[178] 0
y[179] 0
y[180] 0
y[181] 0
y[182] 0
y[183] 0
y[184] 0
y[185] 0
y[186] 0
y[187] 0
y[188] 0
y[189] 0
y[190] 0
y[191] 0
y[192] 0
y[193] 0
y[194] 0
y[195] 0
y[196] 0
y[197] 1
y[198] 1
y[199] 0
y[200] 0
y[201] 0
y[202] 0
y[203] 0
y[204] 0
y[205] 1
y[206] 1
y[207] 0
y[208] 0
y[209] 1
y[210] 1
y[211] 0
y[212] 0
y[213] 0
y[214] 0
y[215] 1
y[216] 0
y[217] 0
y[218] 0
y[219] 0
y[220] 0
y[221] 0
y[222] 0
y[223] 0
y[224] 0
y[225] 0
y[226] 1
y[227] 0
y[228] 0
y[229] 0
y[230] 0
y[231] 0
y[232] 0
y[233] 0
y[234] 0
y[235] 0
y[236] 0
y[237] 0
y[238] 0
y[239] 0
y[240] 0
y[241] 1
y[242] 0
y[243] 0
y[244] 0
y[245] 0
y[246] 0
y[247] 0
y[248] 0
y[249] 0
y[250] 0
y[251] 0
y[252] 0
y[253] 0
y[254] 0
y[255] 0
y[256] 0
y[257] 0
y[258] 1
y[259] 1
y[260] 0
y[261] 0
y[262] 0
y[263] 0
y[264] 1
y[265] 0
y[266] 0
y[267] 0
y[268] 0
y[269] 1
y[270] 0
y[271] 1
y[272] 0
y[273] 0
y[274] 0
y[275] 0
y[276] 0
y[277] 1
y[278] 0
y[279] 0
y[280] 0
y[281] 1
y[282] 0
y[283] 0
y[284] 0
y[285] 0
y[286] 0
y[287] 0
y[288] 0
y[289] 0
y[290] 0
y[291] 0
y[292] 0
y[293] 0
y[294] 0
y[295] 0
y[296] 0
y[297] 0
y[298] 0
y[299] 0
y[300] 0
y[301] 0
y[302] 0
y[303] 0
y[304] 0
y[305] 0
y[306] 0
y[307] 0
y[308] 0
y[309] 0
y[310] 0
y[311] 0
y[312] 0
y[313] 0
y[314] 0
y[315] 0
y[316] 0
y[317] 0
y[318] 1
y[319] 0
y[320] 1
y[321] 0
y[322] 0
y[323] 0
y[324] 0
y[325] 0
y[326] 1
y[327] 1
y[328] 0
y[329] 0
y[330] 1
y[331] 1
y[332] 0
y[333] 0
y[334] 0
y[335] 1
y[336] 1
y[337] 0
y[338] 1
y[339] 1
y[340] 1
y[341] 1
y[342] 0
y[343] 0
y[344] 1
y[345] 0
y[346] 1
y[347] 1
y[348] 0
y[349] 0
y[350] 0
y[351] 0
y[352] 0
y[353] 1
y[354] 1
y[355] 1
y[356] 1
y[357] 1
y[358] 1
y[359] 0
y[360] 0
y[361] 0
y[362] 0
y[363] 1
y[364] 0
y[365] 1
y[366] 0
y[367] 0
y[368] 0
y[369] 1
y[370] 0
y[371] 0
y[372] 1
y[373] 0
y[374] 1
y[375] 1
y[376] 1
y[377] 1
y[378] 1
y[379] 0
y[380] 0
y[381] 1
y[382] 0
y[383] 0
y[384] 0
y[385] 0
y[386] 0
y[387] 0
y[388] 0
y[389] 0
y[390] 0
y[391] 1
y[392] 0
y[393] 0
y[394] 0
y[395] 1
y[396] 0
y[397] 1
y[398] 1
y[399] 0
y[400] 0
y[401] 0
y[402] 0
y[403] 0
y[404] 0
y[405] 0
y[406] 0
y[407] 1
y[408] 1
y[409] 0
y[410] 0
y[411] 0
y[412] 0
y[413] 1
y[414] 0
y[415] 0
y[416] 1
y[417] 0
y[418] 0
y[419] 0
y[420] 1
y[421] 0
y[422] 0
y[423] 1
y[424] 0
y[425] 0
y[426] 0
y[427] 0
y[428] 0
y[429] 0
y[430] 1
y[431] 0
y[432] 1
y[433] 0
y[434] 1
y[435] 0
y[436] 0
y[437] 1
y[438] 1
y[439] 0
y[440] 0
y[441] 1
y[442] 1
y[443] 1
y[444] 1
y[445] 0
y[446] 1
y[447] 1
y[448] 0
y[449] 1
y[450] 1
y[451] 0
y[452] 0
y[453] 1
y[454] 0
y[455] 0
y[456] 0
y[457] 0
y[458] 1
y[459] 0
y[460] 1
y[461] 0
y[462] 1
y[463] 0
y[464] 0
y[465] 0
y[466] 1
y[467] 1
y[468] 0
y[469] 0
y[470] 1
y[471] 1
y[472] 1
y[473] 1
y[474] 0
y[475] 0
y[476] 0
y[477] 1
y[478] 0
y[479] 0
y[480] 0
y[481] 0
y[482] 1
y[483] 1
y[484] 1
y[485] 0
y[486] 0
y[487] 0
y[488] 1
y[489] 0
y[490] 0
y[491] 1
y[492] 1
y[493] 1
y[494] 1
y[495] 0
y[496] 0
y[497] 1
y[498] 0
y[499] 1
y[500] 0
y[501] 1
y[502] 1
y[503] 1
y[504] 1
y[505] 1
y[506] 1
y[507] 0
y[508] 0
y[509] 1
y[510] 0
y[511] 0
y[512] 0
y[513] 1
y[514] 1
y[515] 1
y[516] 1
y[517] 0
y[518] 1
y[519] 1
y[520] 0
y[521] 0
y[522] 1
y[523] 0
y[524] 0
y[525] 0
y[526] 1
y[527] 1
y[528] 0
y[529] 0
y[530] 0
y[531] 0
y[532] 0
y[533] 1
y[534] 0
y[535] 0
y[536] 0
y[537] 0
y[538] 1
y[539] 1
y[540] 0
y[541] 1
y[542] 0
y[543] 0
y[544] 0
y[545] 0
y[546] 0
y[547] 1
y[548] 0
y[549] 0
y[550] 0
y[551] 0
y[552] 0
y[553] 1
y[554] 1
y[555] 1
y[556] 1
y[557] 1
y[558] 1
y[559] 1
y[560] 1
y[561] 0
y[562] 0
y[563] 0
y[564] 1
y[565] 1
y[566] 0
y[567] 0
y[568] 1
y[569] 0
y[570] 1
y[571] 0
y[572] 0
y[573] 0
y[574] 0
y[575] 0
y[576] 0
y[577] 0
y[578] 0
y[579] 0
y[580] 0
y[581] 0
y[582] 0
y[583] 0
y[584] 1
y[585] 0
y[586] 1
y[587] 0
y[588] 0
y[589] 0
y[590] 0
y[591] 1
y[592] 0
y[593] 0
y[594] 0
y[595] 0
y[596] 0
y[597] 0
y[598] 0
y[599] 0
y[600] 0
y[601] 0
y[602] 0
y[603] 0
y[604] 0
y[605] 0
y[606] 1
y[607] 0
y[608] 0
y[609] 1
y[610] 0
y[611] 0
y[612] 0
y[613] 0
y[614] 1
y[615] 0
y[616] 0
y[617] 0
y[618] 0
y[619] 0
y[620] 0
y[621] 0
y[622] 0
y[623] 1
y[624] 0
y[625] 0
y[626] 0
y[627] 0
y[628] 0
y[629] 0
y[630] 0
y[631] 0
y[632] 0
y[633] 0
y[634] 0
y[635] 0
y[636] 0
y[637] 0
y[638] 0
y[639] 1
y[640] 0
y[641] 0
y[642] 0
y[643] 0
y[644] 0
y[645] 0
y[646] 0
y[647] 0
y[648] 0
y[649] 0
y[650] 0
y[651] 0
y[652] 1
y[653] 1
y[654] 0
y[655] 0
y[656] 0
y[657] 1
y[658] 0
y[659] 0
y[660] 0
y[661] 0
y[662] 0
y[663] 0
y[664] 0
y[665] 0
y[666] 0
y[667] 0
y[668] 0
y[669] 0
y[670] 0
y[671] 0
y[672] 0
y[673] 0
y[674] 0
y[675] 0
y[676] 0
y[677] 0
y[678] 0
y[679] 0
y[680] 0
y[681] 0
y[682] 0
y[683] 0
y[684] 0
y[685] 0
y[686] 0
y[687] 0
y[688] 0
y[689] 0
y[690] 0
y[691] 0
y[692] 0
y[693] 0
y[694] 0
y[695] 1
y[696] 0
y[697] 0
y[698] 0
y[699] 0
y[700] 0
y[701] 0
y[702] 0
y[703] 0
y[704] 0
y[705] 0
y[706] 0
y[707] 0
y[708] 0
y[709] 0
y[710] 0
y[711] 0
y[712] 0
y[713] 0
y[714] 0
y[715] 0
y[716] 0
y[717] 0
y[718] 0
y[719] 0
y[720] 0
y[721] 0
y[722] 0
y[723] 1
y[724] 0
y[725] 0
y[726] 0
y[727] 0
y[728] 0
y[729] 1
y[730] 0
y[731] 0
y[732] 0
y[733] 0
y[734] 0
y[735] 0
y[736] 0
y[737] 0
y[738] 0
y[739] 0
y[740] 1
y[741] 0
y[742] 0
y[743] 0
y[744] 0
y[745] 0
y[746] 0
y[747] 0
y[748] 0
y[749] 0
y[750] 0
y[751] 0
y[752] 0
y[753] 0
y[754] 1
y[755] 0
y[756] 0
y[757] 0
y[758] 0
y[759] 0
y[760] 0
y[761] 0
y[762] 0
y[763] 0
y[764] 0
y[765] 0
y[766] 0
y[767] 0
y[768] 0
y[769] 0
y[770] 0
y[771] 0
y[772] 0
y[773] 0
y[774] 0
y[775] 0
y[776] 0
y[777] 0
y[778] 0
y[779] 0
y[780] 0
y[781] 0
y[782] 0
y[783] 0
y[784] 0
y[785] 0
y[786] 0
y[787] 0
y[788] 0
y[789] 0
y[790] 0
y[791] 0
y[792] 0
y[793] 0
y[794] 1
y[795] 1
y[796] 0
y[797] 1
y[798] 0
y[799] 0
y[800] 0
y[801] 0
y[802] 1
y[803] 0
y[804] 0
y[805] 1
y[806] 1
y[807] 1
y[808] 0
y[809] 0
y[810] 0
y[811] 1
y[812] 0
y[813] 0
y[814] 1
y[815] 0
y[816] 0
y[817] 1
y[818] 0
y[819] 0
y[820] 0
y[821] 1
y[822] 0
y[823] 0
y[824] 0
y[825] 0
y[826] 0
y[827] 0
y[828] 0
y[829] 0
y[830] 0
y[831] 0
y[832] 0
y[833] 0
y[834] 0
y[835] 0
y[836] 0
y[837] 0
y[838] 1
y[839] 0
y[840] 1
y[841] 0
y[842] 1
y[843] 0
y[844] 1
y[845] 0
y[846] 0
y[847] 0
y[848] 0
y[849] 0
y[850] 0
y[851] 0
y[852] 0
y[853] 1
y[854] 1
y[855] 0
y[856] 1
y[857] 1
y[858] 0
y[859] 1
y[860] 0
y[861] 1
y[862] 0
y[863] 0
y[864] 0
y[865] 0
y[866] 1
y[867] 1
y[868] 1
y[869] 0
y[870] 0
y[871] 0
y[872] 0
y[873] 0
y[874] 1
y[875] 1
y[876] 0
y[877] 0
y[878] 0
y[879] 0
y[880] 0
y[881] 0
y[882] 1
y[883] 0
y[884] 0
y[885] 0
y[886] 0
y[887] 1
y[888] 0
y[889] 0
y[890] 0
y[891] 0
y[892] 0
y[893] 0
y[894] 0
y[895] 0
y[896] 1
y[897] 0
y[898] 1
y[899] 0
y[900] 1
y[901] 0
y[902] 0
y[903] 1
y[904] 0
y[905] 0
y[906] 0
y[907] 0
y[908] 0
y[909] 0
y[910] 1
y[911] 0
y[912] 1
y[913] 1
y[914] 0
y[915] 1
y[916] 0
y[917] 0
y[918] 0
y[919] 1
y[920] 0
y[921] 0
y[922] 1
y[923] 0
y[924] 1
y[925] 1
y[926] 0
y[927] 0
y[928] 1
y[929] 1
y[930] 0
y[931] 0
y[932] 0
y[933] 0
y[934] 0
y[935] 1
y[936] 1
y[937] 0
y[938] 1
y[939] 0
y[940] 1
y[941] 1
y[942] 0
y[943] 0
y[944] 1
y[945] 1
y[946] 1
y[947] 1
y[948] 1
y[949] 1
y[950] 1
y[951] 1
y[952] 1
y[953] 1
y[954] 1
y[955] 0
y[956] 1
y[957] 1
y[958] 0
y[959] 0
y[960] 1
y[961] 0
y[962] 0
y[963] 1
y[964] 1
y[965] 1
y[966] 1
y[967] 0
y[968] 1
y[969] 0
y[970] 1
y[971] 1
y[972] 1
y[973] 0
y[974] 1
y[975] 0
y[976] 0
y[977] 0
y[978] 0
y[979] 0
y[980] 0
y[981] 0
y[982] 1
y[983] 0
y[984] 0
y[985] 0
y[986] 0
y[987] 0
y[988] 0
y[989] 0
y[990] 0
y[991] 0
y[992] 0
y[993] 0
y[994] 0
y[995] 0
y[996] 1
y[997] 1
y[998] 0
y[999] 1
y[1000] 1
y[1001] 0
y[1002] 1
y[1003] 1
y[1004] 0
y[1005] 1
y[1006] 1
y[1007] 1
y[1008] 1
y[1009] 0
y[1010] 1
y[1011] 0
y[1012] 0
y[1013] 0
y[1014] 0
y[1015] 1
y[1016] 1
y[1017] 1
y[1018] 1
y[1019] 0
y[1020] 1
y[1021] 1
y[1022] 0
y[1023] 1
y[1024] 0
y[1025] 0
y[1026] 1
y[1027] 0
y[1028] 0
y[1029] 0
y[1030] 0
y[1031] 0
y[1032] 0
y[1033] 0
y[1034] 0
y[1035] 0
y[1036] 1
y[1037] 0
y[1038] 1
y[1039] 1
y[1040] 0
y[1041] 0
y[1042] 1
y[1043] 1
y[1044] 1
y[1045] 0
y[1046] 0
y[1047] 0
y[1048] 1
y[1049] 1
y[1050] 0
y[1051] 1
y[1052] 1
y[1053] 1
y[1054] 0
y[1055] 0
y[1056] 1
y[1057] 0
y[1058] 1
y[1059] 1
y[1060] 0
y[1061] 0
y[1062] 1
y[1063] 1
y[1064] 0
y[1065] 0
y[1066] 1
y[1067] 1
y[1068] 1
y[1069] 0
y[1070] 1
y[1071] 0
y[1072] 0
y[1073] 0
y[1074] 0
y[1075] 0
y[1076] 1
y[1077] 1
y[1078] 1
y[1079] 1
y[1080] 1
y[1081] 1
y[1082] 0
y[1083] 1
y[1084] 0
y[1085] 0
y[1086] 1
y[1087] 1
y[1088] 0
y[1089] 0
y[1090] 0
y[1091] 1
y[1092] 0
y[1093] 1
y[1094] 0
y[1095] 0
y[1096] 0
y[1097] 0
y[1098] 1
y[1099] 0
y[1100] 1
y[1101] 1
y[1102] 0
y[1103] 1
y[1104] 1
y[1105] 1
y[1106] 1
y[1107] 1
y[1108] 0
y[1109] 1
y[1110] 0
y[1111] 1
y[1112] 1
y[1113] 0
y[1114] 1
y[1115] 0
y[1116] 0
y[1117] 0
y[1118] 1
y[1119] 1
y[1120] 0
y[1121] 0
y[1122] 0
y[1123] 0
y[1124] 0
y[1125] 0
y[1126] 1
y[1127] 0
y[1128] 0
y[1129] 0
y[1130] 0
y[1131] 0
y[1132] 1
y[1133] 0
y[1134] 1
y[1135] 1
y[1136] 1
y[1137] 1
y[1138] 0
y[1139] 0
y[1140] 0
y[1141] 1
y[1142] 0
y[1143] 0
y[1144] 0
y[1145] 0
y[1146] 0
y[1147] 1
y[1148] 1
y[1149] 1
y[1150] 1
y[1151] 1
y[1152] 0
y[1153] 0
y[1154] 0
y[1155] 0
y[1156] 1
y[1157] 1
y[1158] 1
y[1159] 0
y[1160] 1
y[1161] 0
y[1162] 1
y[1163] 0
y[1164] 0
y[1165] 1
y[1166] 0
y[1167] 1
y[1168] 1
y[1169] 1
y[1170] 0
y[1171] 0
y[1172] 1
y[1173] 0
y[1174] 0
y[1175] 0
y[1176] 0
y[1177] 1
y[1178] 0
y[1179] 1
y[1180] 1
y[1181] 0
y[1182] 1
y[1183] 0
y[1184] 0
y[1185] 0
y[1186] 0
y[1187] 0
y[1188] 0
y[1189] 0
y[1190] 1
y[1191] 0
y[1192] 1
y[1193] 0
y[1194] 0
y[1195] 0
y[1196] 0
y[1197] 0
y[1198] 0
y[1199] 0
y[1200] 0
y[1201] 0
y[1202] 0
y[1203] 0
y[1204] 1
y[1205] 1
y[1206] 1
y[1207] 1
y[1208] 1
y[1209] 1
y[1210] 0
y[1211] 0
y[1212] 0
y[1213] 0
y[1214] 0
y[1215] 0
y[1216] 0
y[1217] 1
y[1218] 0
y[1219] 1
y[1220] 1
y[1221] 1
y[1222] 0
y[1223] 1
y[1224] 1
y[1225] 0
y[1226] 0
y[1227] 0
y[1228] 1
y[1229] 0
y[1230] 1
y[1231] 0
y[1232] 0
y[1233] 0
y[1234] 0
y[1235] 0
y[1236] 0
y[1237] 0
y[1238] 0
y[1239] 0
y[1240] 0
y[1241] 0
y[1242] 1
y[1243] 0
y[1244] 0
y[1245] 0
y[1246] 0
y[1247] 0
y[1248] 1
y[1249] 0
y[1250] 0
y[1251] 0
y[1252] 0
y[1253] 0
y[1254] 0
y[1255] 0
y[1256] 0
y[1257] 0
y[1258] 0
y[1259] 0
y[1260] 1
y[1261] 0
y[1262] 0
y[1263] 0
y[1264] 1
y[1265] 0
y[1266] 0
y[1267] 1
y[1268] 0
y[1269] 0
y[1270] 1
y[1271] 0
y[1272] 0
y[1273] 0
y[1274] 0
y[1275] 0
y[1276] 1
y[1277] 0
y[1278] 0
y[1279] 1
y[1280] 0
y[1281] 0
y[1282] 0
y[1283] 0
y[1284] 0
y[1285] 0
y[1286] 1
y[1287] 1
y[1288] 1
y[1289] 1
y[1290] 0
y[1291] 0
y[1292] 1
y[1293] 0
y[1294] 0
y[1295] 0
y[1296] 0
y[1297] 1
y[1298] 0
y[1299] 0
y[1300] 1
y[1301] 1
y[1302] 1
y[1303] 1
y[1304] 0
y[1305] 0
y[1306] 0
y[1307] 0
y[1308] 0
y[1309] 0
y[1310] 0
y[1311] 1
y[1312] 0
y[1313] 0
y[1314] 0
y[1315] 0
y[1316] 1
y[1317] 1
y[1318] 0
y[1319] 1
y[1320] 0
y[1321] 1
y[1322] 0
y[1323] 1
y[1324] 0
y[1325] 0
y[1326] 0
y[1327] 0
y[1328] 0
y[1329] 0
y[1330] 0
y[1331] 0
y[1332] 0
y[1333] 0
y[1334] 0
y[1335] 1
y[1336] 0
y[1337] 0
y[1338] 0
y[1339] 0
y[1340] 0
y[1341] 0
y[1342] 0
y[1343] 0
y[1344] 0
y[1345] 0
y[1346] 0
y[1347] 0
y[1348] 0
y[1349] 0
y[1350] 0
y[1351] 0
y[1352] 0
y[1353] 0
y[1354] 0
y[1355] 0
y[1356] 0
y[1357] 0
y[1358] 0
y[1359] 0
y[1360] 0
y[1361] 0
y[1362] 0
y[1363] 0
y[1364] 0
y[1365] 0
y[1366] 0
y[1367] 1
y[1368] 0
y[1369] 0
y[1370] 1
y[1371] 1
y[1372] 1
y[1373] 0
y[1374] 0
y[1375] 0
y[1376] 0
y[1377] 1
y[1378] 0
y[1379] 0
y[1380] 0
y[1381] 0
y[1382] 0
y[1383] 0
y[1384] 0
y[1385] 0
y[1386] 0
y[1387] 0
y[1388] 0
y[1389] 0
y[1390] 1
y[1391] 0
y[1392] 0
y[1393] 0
y[1394] 0
y[1395] 0
y[1396] 0
y[1397] 0
y[1398] 0
y[1399] 0
y[1400] 0
y[1401] 0
y[1402] 1
y[1403] 0
y[1404] 0
y[1405] 1
y[1406] 1
y[1407] 0
y[1408] 1
y[1409] 0
y[1410] 0
y[1411] 0
y[1412] 1
y[1413] 0
y[1414] 0
y[1415] 0
y[1416] 0
y[1417] 1
y[1418] 0
y[1419] 0
y[1420] 0
y[1421] 0
y[1422] 0
y[1423] 0
y[1424] 0
y[1425] 0
y[1426] 1
y[1427] 0
y[1428] 0
y[1429] 1
y[1430] 0
y[1431] 0
y[1432] 1
y[1433] 0
y[1434] 0
y[1435] 0
y[1436] 0
y[1437] 0
y[1438] 0
y[1439] 0
y[1440] 1
y[1441] 0
y[1442] 0
y[1443] 0
y[1444] 0
y[1445] 0
y[1446] 0
y[1447] 0
y[1448] 0
y[1449] 0
y[1450] 1
y[1451] 1
y[1452] 0
y[1453] 0
y[1454] 1
y[1455] 0
y[1456] 0
y[1457] 0
y[1458] 0
y[1459] 1
y[1460] 0
y[1461] 0
y[1462] 0
y[1463] 0
y[1464] 0
y[1465] 0
y[1466] 0
y[1467] 0
y[1468] 0
y[1469] 0
y[1470] 0
y[1471] 1
y[1472] 1
y[1473] 0
y[1474] 0
y[1475] 1
y[1476] 0
y[1477] 1
y[1478] 0
y[1479] 1
y[1480] 0
y[1481] 1
y[1482] 0
y[1483] 0
y[1484] 0
y[1485] 0
y[1486] 0
y[1487] 0
y[1488] 0
y[1489] 0
y[1490] 1
y[1491] 0
y[1492] 0
y[1493] 0
y[1494] 0
y[1495] 0
y[1496] 0
y[1497] 0
y[1498] 0
y[1499] 0
y[1500] 0
y[1501] 0
y[1502] 0
y[1503] 0
y[1504] 1
y[1505] 0
y[1506] 0
y[1507] 1
y[1508] 1
y[1509] 1
y[1510] 0
y[1511] 0
y[1512] 0
y[1513] 0
y[1514] 0
y[1515] 0
y[1516] 1
y[1517] 0
y[1518] 0
y[1519] 0
y[1520] 0
y[1521] 0
y[1522] 1
y[1523] 0
y[1524] 0
y[1525] 0
y[1526] 0
y[1527] 0
y[1528] 0
y[1529] 0
y[1530] 0
y[1531] 0
y[1532] 0
y[1533] 0
y[1534] 0
y[1535] 0
y[1536] 0
y[1537] 0
y[1538] 1
y[1539] 0
y[1540] 0
y[1541] 0
y[1542] 0
y[1543] 0
y[1544] 1
y[1545] 0
y[1546] 0
y[1547] 0
y[1548] 0
y[1549] 0
y[1550] 0
y[1551] 0
y[1552] 0
y[1553] 0
y[1554] 0
y[1555] 0
y[1556] 0
y[1557] 0
y[1558] 0
y[1559] 0
y[1560] 0
y[1561] 0
y[1562] 0
y[1563] 0
y[1564] 0
y[1565] 0
y[1566] 1
y[1567] 0
y[1568] 0
y[1569] 0
y[1570] 1
y[1571] 0
y[1572] 0
y[1573] 1
y[1574] 0
y[1575] 1
y[1576] 1
y[1577] 1
y[1578] 0
y[1579] 0
y[1580] 1
y[1581] 0
y[1582] 0
y[1583] 0
y[1584] 1
y[1585] 1
y[1586] 1
y[1587] 0
y[1588] 1
y[1589] 0
y[1590] 1
y[1591] 0
y[1592] 0
y[1593] 0
y[1594] 0
y[1595] 0
y[1596] 0
y[1597] 0
y[1598] 1
V 0
